DIMENSION :16
NODE_COORD_SECTION
1 41.35000374544043 7.356928860956046
2 6.956264945223765 4.362051709525701
3 80.89644186900856 47.43165736492517
4 36.431407898822556 78.74584567619672
5 -15.45723889083068 -39.66198515617174
6 64.94785487749303 41.23504800763317
7 -53.80620257408373 13.867567804880892
8 74.20677982324128 -2.3928518993516974
9 -42.03119337196759 60.61278241293283
10 -6.953904188721438 -89.83934677248224
11 36.978526571034564 -13.671165575851091
12 -30.841066000613495 14.975381505448837
13 11.511764725013322 -15.325752438954751
14 -59.62635625979218 -29.428274597313674
15 85.46084376615394 38.53662323569333
16 -44.71836509077587 18.663437436670208
EOF
